20190711 174 0 0 0
20170629 181 2000 0 0
20160708 363 0 0 0
20150708 435 2000 0 0
20140710 435 0 0 0
20130724 470 3000 0 0
20120518 250 0 0 0
20110421 200 0 0 0
20100520 130 0 0 0
20090616 130 0 0 0
20080506 110 0 0 0
20070417 110 0 0 0
20060606 0 3000 0 0
20060331 110 0 0 0
20050602 100 0 0 0
20040521 10 2000 0 0
20031104 353 0 0 0
